(set-logic QF_NIA)
(set-info :status unsat)
(declare-fun a () Int)
(declare-fun b () Int)
(declare-fun res1 () Int)
(declare-fun res2 () Int)
(assert (and (= res1 (* a b)) (= res2 (* 3 b))))
(assert (= a 3))
(assert (not (= res1 res2)))
(check-sat)
